NAME : random10---8_4_2016--18:35:10
COMMENT : 10-node TSP instance randomly created on 8/4/2016 at 18:35:10
TYPE : TSP
DIMENSION : 10
EDGE_WEIGHT_TYPE : EUC_2D
NODE_COORD_SECTION
1 38.664025 44.767196
2 93.659856 10.800391
3 81.783491 33.808387
4 25.969802 103.699869
5 12.880737 82.461629
6 67.951479 17.842125
7 11.575112 101.360699
8 100.067833 76.324468
9 74.565875 17.903707
10 88.926337 68.995710
EOF